
Gurobi 11.0.0 (win64) logging started Sat Jun 15 09:44:54 2024


Gurobi 11.0.0 (win64) logging started Sat Jun 15 10:43:31 2024


Gurobi 11.0.0 (win64) logging started Sat Jun 15 11:02:05 2024


Gurobi 11.0.0 (win64) logging started Sat Jun 15 13:57:28 2024


Gurobi 11.0.0 (win64) logging started Sat Jun 15 14:00:17 2024


Gurobi 11.0.0 (win64) logging started Tue Jul  2 10:35:11 2024

